\ENCODING=ISO-8859-1
\Problem name: IloCplex

Minimize
 obj1: z
Subject To
 c1:  x_0  = 1
 c2:  x_1 + x_3 + x_7 + x_9 + x_11 + x_13 + x_15 + x_19 + x_21 + x_23 + x_28
      + x_30 + x_32 + x_34 + x_37 + x_40 + x_42 + x_44 + x_46 + x_49 + x_52
      + x_54 + x_56 + x_58 + x_60 + x_62 + x_64 + x_67 + x_70 + x_73 + x_76
      + x_78 + x_80 + x_82 + x_84 + x_86 + x_88 + x_91 + x_94 + x_96 + x_98
      + x_100 + x_102 + x_104 + x_106 + x_109 + x_112 + x_115 + x_118 + x_120
      + x_122 + x_124 + x_126 + x_128 + x_130 + x_132 + x_134 + x_136 + x_138
      + x_140 + x_142 + x_144 + x_146 + x_149 + x_152 + x_155 + x_158 + x_160
      + x_162 + x_164 + x_166 + x_168 + x_170 + x_172 + x_174 + x_176 + x_178
      + x_180 + x_182 + x_184 + x_186 + x_189 + x_192 + x_195 + x_198 + x_200
      + x_202 + x_204 + x_206 + x_208 + x_210  = 1
 c3:  x_3 + x_7 + x_11 + x_15 + x_19 + x_23 + x_28 + x_30 + x_32 + x_34 + x_37
      + x_40 + x_42 + x_46 + x_49 + x_52 + x_54 + x_56 + x_58 + x_60 + x_62
      + x_64 + x_67 + x_70 + x_73 + x_76 + x_78 + x_80 + x_84 + x_88 + x_91
      + x_94 + x_96 + x_98 + x_100 + x_102 + x_104 + x_106 + x_109 + x_112
      + x_115 + x_118 + x_120 + x_122 + x_126 + x_130 + x_132 + x_134 + x_136
      + x_138 + x_140 + x_142 + x_144 + x_146 + x_149 + x_152 + x_155 + x_158
      + x_160 + x_162 + x_166 + x_170 + x_172 + x_174 + x_176 + x_178 + x_180
      + x_182 + x_184 + x_186 + x_189 + x_192 + x_195 + x_198 + x_200 + x_202
      + x_206 + x_210 + x_2 + x_6 + x_10 + x_14 + x_18 + x_22 + x_27 + x_29
      + x_31 + x_33 + x_36 + x_39 + x_41 + x_45 + x_48 + x_51 + x_53 + x_55
      + x_57 + x_59 + x_61 + x_63 + x_66 + x_69 + x_72 + x_75 + x_77 + x_79
      + x_83 + x_87 + x_90 + x_93 + x_95 + x_97 + x_99 + x_101 + x_103 + x_105
      + x_108 + x_111 + x_114 + x_117 + x_119 + x_121 + x_125 + x_129 + x_131
      + x_133 + x_135 + x_137 + x_139 + x_141 + x_143 + x_145 + x_148 + x_151
      + x_154 + x_157 + x_159 + x_161 + x_165 + x_169 + x_171 + x_173 + x_175
      + x_177 + x_179 + x_181 + x_183 + x_185 + x_188 + x_191 + x_194 + x_197
      + x_199 + x_201 + x_205 + x_209  = 1
 c4:  x_52 + x_56 + x_60 + x_64 + x_70 + x_76 + x_80 + x_86 + x_88 + x_94
      + x_98 + x_102 + x_106 + x_112 + x_118 + x_122 + x_128 + x_130 + x_134
      + x_138 + x_142 + x_146 + x_152 + x_158 + x_162 + x_168 + x_170 + x_174
      + x_178 + x_182 + x_186 + x_192 + x_198 + x_202 + x_208 + x_210 + x_51
      + x_55 + x_59 + x_63 + x_69 + x_75 + x_79 + x_87 + x_93 + x_97 + x_101
      + x_105 + x_111 + x_117 + x_121 + x_129 + x_133 + x_137 + x_141 + x_145
      + x_151 + x_157 + x_161 + x_169 + x_173 + x_177 + x_181 + x_185 + x_191
      + x_197 + x_201 + x_209 + x_4 + x_25 + x_50 + x_68 + x_74 + x_85 + x_92
      + x_110 + x_116 + x_127 + x_150 + x_156 + x_167 + x_190 + x_196 + x_207
       = 1
 c5:  x_7 + x_13 + x_15 + x_19 + x_21 + x_23 + x_30 + x_34 + x_40 + x_44 + x_46
      + x_54 + x_56 + x_62 + x_64 + x_73 + x_76 + x_82 + x_84 + x_86 + x_88
      + x_96 + x_98 + x_104 + x_106 + x_115 + x_118 + x_124 + x_126 + x_128
      + x_130 + x_136 + x_138 + x_144 + x_146 + x_155 + x_158 + x_164 + x_166
      + x_168 + x_170 + x_176 + x_178 + x_184 + x_186 + x_195 + x_198 + x_204
      + x_206 + x_208 + x_210 + x_6 + x_14 + x_18 + x_22 + x_29 + x_33 + x_39
      + x_45 + x_53 + x_55 + x_61 + x_63 + x_72 + x_75 + x_83 + x_87 + x_95
      + x_97 + x_103 + x_105 + x_114 + x_117 + x_125 + x_129 + x_135 + x_137
      + x_143 + x_145 + x_154 + x_157 + x_165 + x_169 + x_175 + x_177 + x_183
      + x_185 + x_194 + x_197 + x_205 + x_209 + x_74 + x_85 + x_116 + x_127
      + x_156 + x_167 + x_196 + x_207 + x_5 + x_12 + x_17 + x_20 + x_38 + x_43
      + x_71 + x_81 + x_113 + x_123 + x_153 + x_163 + x_193 + x_203  = 1
 c6:  x_9 + x_11 + x_13 + x_15 + x_21 + x_23 + x_32 + x_34 + x_42 + x_44 + x_46
      + x_58 + x_60 + x_62 + x_64 + x_78 + x_80 + x_82 + x_84 + x_86 + x_88
      + x_100 + x_102 + x_104 + x_106 + x_120 + x_122 + x_124 + x_126 + x_128
      + x_130 + x_140 + x_142 + x_144 + x_146 + x_160 + x_162 + x_164 + x_166
      + x_168 + x_170 + x_180 + x_182 + x_184 + x_186 + x_200 + x_202 + x_204
      + x_206 + x_208 + x_210 + x_10 + x_14 + x_22 + x_31 + x_33 + x_41 + x_45
      + x_57 + x_59 + x_61 + x_63 + x_77 + x_79 + x_83 + x_87 + x_99 + x_101
      + x_103 + x_105 + x_119 + x_121 + x_125 + x_129 + x_139 + x_141 + x_143
      + x_145 + x_159 + x_161 + x_165 + x_169 + x_179 + x_181 + x_183 + x_185
      + x_199 + x_201 + x_205 + x_209 + x_85 + x_127 + x_167 + x_207 + x_12
      + x_20 + x_43 + x_81 + x_123 + x_163 + x_203 + x_8  = 1
 c7:  x_19 + x_21 + x_23 + x_37 + x_40 + x_42 + x_44 + x_46 + x_67 + x_70
      + x_73 + x_76 + x_78 + x_80 + x_82 + x_84 + x_86 + x_88 + x_109 + x_112
      + x_115 + x_118 + x_120 + x_122 + x_124 + x_126 + x_128 + x_130 + x_149
      + x_152 + x_155 + x_158 + x_160 + x_162 + x_164 + x_166 + x_168 + x_170
      + x_189 + x_192 + x_195 + x_198 + x_200 + x_202 + x_204 + x_206 + x_208
      + x_210 + x_18 + x_22 + x_36 + x_39 + x_41 + x_45 + x_66 + x_69 + x_72
      + x_75 + x_77 + x_79 + x_83 + x_87 + x_108 + x_111 + x_114 + x_117
      + x_119 + x_121 + x_125 + x_129 + x_148 + x_151 + x_154 + x_157 + x_159
      + x_161 + x_165 + x_169 + x_188 + x_191 + x_194 + x_197 + x_199 + x_201
      + x_205 + x_209 + x_68 + x_74 + x_85 + x_110 + x_116 + x_127 + x_150
      + x_156 + x_167 + x_190 + x_196 + x_207 + x_17 + x_20 + x_38 + x_43
      + x_71 + x_81 + x_113 + x_123 + x_153 + x_163 + x_193 + x_203 + x_16
      + x_35 + x_65 + x_107 + x_147 + x_187  = 1
 c8:  x_91 + x_94 + x_96 + x_98 + x_100 + x_102 + x_104 + x_106 + x_109 + x_112
      + x_115 + x_118 + x_120 + x_122 + x_124 + x_126 + x_128 + x_130 + x_172
      + x_174 + x_176 + x_178 + x_180 + x_182 + x_184 + x_186 + x_189 + x_192
      + x_195 + x_198 + x_200 + x_202 + x_204 + x_206 + x_208 + x_210 + x_90
      + x_93 + x_95 + x_97 + x_99 + x_101 + x_103 + x_105 + x_108 + x_111
      + x_114 + x_117 + x_119 + x_121 + x_125 + x_129 + x_171 + x_173 + x_175
      + x_177 + x_179 + x_181 + x_183 + x_185 + x_188 + x_191 + x_194 + x_197
      + x_199 + x_201 + x_205 + x_209 + x_25 + x_92 + x_110 + x_116 + x_127
      + x_190 + x_196 + x_207 + x_113 + x_123 + x_193 + x_203 + x_107 + x_187
      + x_24 + x_89  = 1
 c9:  x_28 + x_30 + x_32 + x_34 + x_37 + x_40 + x_42 + x_44 + x_46 + x_132
      + x_134 + x_136 + x_138 + x_140 + x_142 + x_144 + x_146 + x_149 + x_152
      + x_155 + x_158 + x_160 + x_162 + x_164 + x_166 + x_168 + x_170 + x_172
      + x_174 + x_176 + x_178 + x_180 + x_182 + x_184 + x_186 + x_189 + x_192
      + x_195 + x_198 + x_200 + x_202 + x_204 + x_206 + x_208 + x_210 + x_27
      + x_29 + x_31 + x_33 + x_36 + x_39 + x_41 + x_45 + x_131 + x_133 + x_135
      + x_137 + x_139 + x_141 + x_143 + x_145 + x_148 + x_151 + x_154 + x_157
      + x_159 + x_161 + x_165 + x_169 + x_171 + x_173 + x_175 + x_177 + x_179
      + x_181 + x_183 + x_185 + x_188 + x_191 + x_194 + x_197 + x_199 + x_201
      + x_205 + x_209 + x_150 + x_156 + x_167 + x_190 + x_196 + x_207 + x_38
      + x_43 + x_153 + x_163 + x_193 + x_203 + x_35 + x_147 + x_187 + x_26  = 1
 c10: x_49 + x_52 + x_54 + x_56 + x_58 + x_60 + x_62 + x_64 + x_67 + x_70
      + x_73 + x_76 + x_78 + x_80 + x_82 + x_84 + x_86 + x_88 + x_91 + x_94
      + x_96 + x_98 + x_100 + x_102 + x_104 + x_106 + x_109 + x_112 + x_115
      + x_118 + x_120 + x_122 + x_124 + x_126 + x_128 + x_130 + x_132 + x_134
      + x_136 + x_138 + x_140 + x_142 + x_144 + x_146 + x_149 + x_152 + x_155
      + x_158 + x_160 + x_162 + x_164 + x_166 + x_168 + x_170 + x_172 + x_174
      + x_176 + x_178 + x_180 + x_182 + x_184 + x_186 + x_189 + x_192 + x_195
      + x_198 + x_200 + x_202 + x_204 + x_206 + x_208 + x_210 + x_48 + x_51
      + x_53 + x_55 + x_57 + x_59 + x_61 + x_63 + x_66 + x_69 + x_72 + x_75
      + x_77 + x_79 + x_83 + x_87 + x_90 + x_93 + x_95 + x_97 + x_99 + x_101
      + x_103 + x_105 + x_108 + x_111 + x_114 + x_117 + x_119 + x_121 + x_125
      + x_129 + x_131 + x_133 + x_135 + x_137 + x_139 + x_141 + x_143 + x_145
      + x_148 + x_151 + x_154 + x_157 + x_159 + x_161 + x_165 + x_169 + x_171
      + x_173 + x_175 + x_177 + x_179 + x_181 + x_183 + x_185 + x_188 + x_191
      + x_194 + x_197 + x_199 + x_201 + x_205 + x_209 + x_50 + x_68 + x_74
      + x_85 + x_92 + x_110 + x_116 + x_127 + x_150 + x_156 + x_167 + x_190
      + x_196 + x_207 + x_71 + x_81 + x_113 + x_123 + x_153 + x_163 + x_193
      + x_203 + x_65 + x_107 + x_147 + x_187 + x_89 + x_47  = 1
 c11: - z <= 0
 c12: - z + 29 x_3 + 43 x_7 + 37 x_9 + 66 x_11 + 69 x_13 + 75 x_15 + 111 x_19
      + 137 x_21 + 143 x_23 + 69 x_28 + 83 x_30 + 106 x_32 + 115 x_34
      + 163 x_37 + 151 x_40 + 200 x_42 + 231 x_44 + 183 x_46 + 70 x_49
      + 123 x_52 + 84 x_54 + 137 x_56 + 107 x_58 + 160 x_60 + 116 x_62
      + 169 x_64 + 133 x_67 + 186 x_70 + 147 x_73 + 200 x_76 + 170 x_78
      + 223 x_80 + 200 x_82 + 179 x_84 + 253 x_86 + 232 x_88 + 78 x_91
      + 131 x_94 + 92 x_96 + 145 x_98 + 115 x_100 + 168 x_102 + 124 x_104
      + 177 x_106 + 141 x_109 + 194 x_112 + 155 x_115 + 208 x_118 + 178 x_120
      + 231 x_122 + 208 x_124 + 187 x_126 + 261 x_128 + 240 x_130 + 110 x_132
      + 163 x_134 + 124 x_136 + 177 x_138 + 147 x_140 + 200 x_142 + 156 x_144
      + 209 x_146 + 173 x_149 + 226 x_152 + 187 x_155 + 240 x_158 + 210 x_160
      + 263 x_162 + 294 x_164 + 219 x_166 + 347 x_168 + 272 x_170 + 118 x_172
      + 171 x_174 + 132 x_176 + 185 x_178 + 155 x_180 + 208 x_182 + 164 x_184
      + 217 x_186 + 181 x_189 + 234 x_192 + 195 x_195 + 248 x_198 + 218 x_200
      + 271 x_202 + 302 x_204 + 227 x_206 + 355 x_208 + 280 x_210 <= 0
 c13: - z + 29 x_3 + 43 x_7 + 66 x_11 + 75 x_15 + 111 x_19 + 143 x_23 + 69 x_28
      + 83 x_30 + 106 x_32 + 115 x_34 + 163 x_37 + 151 x_40 + 200 x_42
      + 183 x_46 + 70 x_49 + 123 x_52 + 84 x_54 + 137 x_56 + 107 x_58
      + 160 x_60 + 116 x_62 + 169 x_64 + 133 x_67 + 186 x_70 + 147 x_73
      + 200 x_76 + 170 x_78 + 223 x_80 + 179 x_84 + 232 x_88 + 78 x_91
      + 131 x_94 + 92 x_96 + 145 x_98 + 115 x_100 + 168 x_102 + 124 x_104
      + 177 x_106 + 141 x_109 + 194 x_112 + 155 x_115 + 208 x_118 + 178 x_120
      + 231 x_122 + 187 x_126 + 240 x_130 + 110 x_132 + 163 x_134 + 124 x_136
      + 177 x_138 + 147 x_140 + 200 x_142 + 156 x_144 + 209 x_146 + 173 x_149
      + 226 x_152 + 187 x_155 + 240 x_158 + 210 x_160 + 263 x_162 + 219 x_166
      + 272 x_170 + 118 x_172 + 171 x_174 + 132 x_176 + 185 x_178 + 155 x_180
      + 208 x_182 + 164 x_184 + 217 x_186 + 181 x_189 + 234 x_192 + 195 x_195
      + 248 x_198 + 218 x_200 + 271 x_202 + 227 x_206 + 280 x_210 + 14 x_6
      + 52 x_10 + 46 x_14 + 82 x_18 + 114 x_22 + 40 x_27 + 54 x_29 + 92 x_31
      + 86 x_33 + 134 x_36 + 122 x_39 + 186 x_41 + 154 x_45 + 41 x_48 + 94 x_51
      + 55 x_53 + 108 x_55 + 93 x_57 + 146 x_59 + 87 x_61 + 140 x_63 + 104 x_66
      + 157 x_69 + 118 x_72 + 171 x_75 + 156 x_77 + 209 x_79 + 150 x_83
      + 203 x_87 + 49 x_90 + 102 x_93 + 63 x_95 + 116 x_97 + 101 x_99
      + 154 x_101 + 95 x_103 + 148 x_105 + 112 x_108 + 165 x_111 + 126 x_114
      + 179 x_117 + 164 x_119 + 217 x_121 + 158 x_125 + 211 x_129 + 81 x_131
      + 134 x_133 + 95 x_135 + 148 x_137 + 133 x_139 + 186 x_141 + 127 x_143
      + 180 x_145 + 144 x_148 + 197 x_151 + 158 x_154 + 211 x_157 + 196 x_159
      + 249 x_161 + 190 x_165 + 243 x_169 + 89 x_171 + 142 x_173 + 103 x_175
      + 156 x_177 + 141 x_179 + 194 x_181 + 135 x_183 + 188 x_185 + 152 x_188
      + 205 x_191 + 166 x_194 + 219 x_197 + 204 x_199 + 257 x_201 + 198 x_205
      + 251 x_209 <= 0
 c14: - z + 123 x_52 + 137 x_56 + 160 x_60 + 169 x_64 + 186 x_70 + 200 x_76
      + 223 x_80 + 253 x_86 + 232 x_88 + 131 x_94 + 145 x_98 + 168 x_102
      + 177 x_106 + 194 x_112 + 208 x_118 + 231 x_122 + 261 x_128 + 240 x_130
      + 163 x_134 + 177 x_138 + 200 x_142 + 209 x_146 + 226 x_152 + 240 x_158
      + 263 x_162 + 347 x_168 + 272 x_170 + 171 x_174 + 185 x_178 + 208 x_182
      + 217 x_186 + 234 x_192 + 248 x_198 + 271 x_202 + 355 x_208 + 280 x_210
      + 94 x_51 + 108 x_55 + 146 x_59 + 140 x_63 + 157 x_69 + 171 x_75
      + 209 x_79 + 203 x_87 + 102 x_93 + 116 x_97 + 154 x_101 + 148 x_105
      + 165 x_111 + 179 x_117 + 217 x_121 + 211 x_129 + 134 x_133 + 148 x_137
      + 186 x_141 + 180 x_145 + 197 x_151 + 211 x_157 + 249 x_161 + 243 x_169
      + 142 x_173 + 156 x_177 + 194 x_181 + 188 x_185 + 205 x_191 + 219 x_197
      + 257 x_201 + 251 x_209 + 55 x_25 + 53 x_50 + 116 x_68 + 184 x_74
      + 216 x_85 + 61 x_92 + 124 x_110 + 192 x_116 + 224 x_127 + 210 x_150
      + 278 x_156 + 310 x_167 + 218 x_190 + 286 x_196 + 318 x_207 <= 0
 c15: - z + 43 x_7 + 69 x_13 + 75 x_15 + 111 x_19 + 137 x_21 + 143 x_23
      + 83 x_30 + 115 x_34 + 151 x_40 + 231 x_44 + 183 x_46 + 84 x_54
      + 137 x_56 + 116 x_62 + 169 x_64 + 147 x_73 + 200 x_76 + 200 x_82
      + 179 x_84 + 253 x_86 + 232 x_88 + 92 x_96 + 145 x_98 + 124 x_104
      + 177 x_106 + 155 x_115 + 208 x_118 + 208 x_124 + 187 x_126 + 261 x_128
      + 240 x_130 + 124 x_136 + 177 x_138 + 156 x_144 + 209 x_146 + 187 x_155
      + 240 x_158 + 294 x_164 + 219 x_166 + 347 x_168 + 272 x_170 + 132 x_176
      + 185 x_178 + 164 x_184 + 217 x_186 + 195 x_195 + 248 x_198 + 302 x_204
      + 227 x_206 + 355 x_208 + 280 x_210 + 14 x_6 + 46 x_14 + 82 x_18
      + 114 x_22 + 54 x_29 + 86 x_33 + 122 x_39 + 154 x_45 + 55 x_53 + 108 x_55
      + 87 x_61 + 140 x_63 + 118 x_72 + 171 x_75 + 150 x_83 + 203 x_87
      + 63 x_95 + 116 x_97 + 95 x_103 + 148 x_105 + 126 x_114 + 179 x_117
      + 158 x_125 + 211 x_129 + 95 x_135 + 148 x_137 + 127 x_143 + 180 x_145
      + 158 x_154 + 211 x_157 + 190 x_165 + 243 x_169 + 103 x_175 + 156 x_177
      + 135 x_183 + 188 x_185 + 166 x_194 + 219 x_197 + 198 x_205 + 251 x_209
      + 184 x_74 + 216 x_85 + 192 x_116 + 224 x_127 + 278 x_156 + 310 x_167
      + 286 x_196 + 318 x_207 + 32 x_12 + 68 x_17 + 100 x_20 + 162 x_38
      + 194 x_43 + 131 x_71 + 163 x_81 + 139 x_113 + 171 x_123 + 225 x_153
      + 257 x_163 + 233 x_193 + 265 x_203 <= 0
 c16: - z + 37 x_9 + 66 x_11 + 69 x_13 + 75 x_15 + 137 x_21 + 143 x_23
      + 106 x_32 + 115 x_34 + 200 x_42 + 231 x_44 + 183 x_46 + 107 x_58
      + 160 x_60 + 116 x_62 + 169 x_64 + 170 x_78 + 223 x_80 + 200 x_82
      + 179 x_84 + 253 x_86 + 232 x_88 + 115 x_100 + 168 x_102 + 124 x_104
      + 177 x_106 + 178 x_120 + 231 x_122 + 208 x_124 + 187 x_126 + 261 x_128
      + 240 x_130 + 147 x_140 + 200 x_142 + 156 x_144 + 209 x_146 + 210 x_160
      + 263 x_162 + 294 x_164 + 219 x_166 + 347 x_168 + 272 x_170 + 155 x_180
      + 208 x_182 + 164 x_184 + 217 x_186 + 218 x_200 + 271 x_202 + 302 x_204
      + 227 x_206 + 355 x_208 + 280 x_210 + 52 x_10 + 46 x_14 + 114 x_22
      + 92 x_31 + 86 x_33 + 186 x_41 + 154 x_45 + 93 x_57 + 146 x_59 + 87 x_61
      + 140 x_63 + 156 x_77 + 209 x_79 + 150 x_83 + 203 x_87 + 101 x_99
      + 154 x_101 + 95 x_103 + 148 x_105 + 164 x_119 + 217 x_121 + 158 x_125
      + 211 x_129 + 133 x_139 + 186 x_141 + 127 x_143 + 180 x_145 + 196 x_159
      + 249 x_161 + 190 x_165 + 243 x_169 + 141 x_179 + 194 x_181 + 135 x_183
      + 188 x_185 + 204 x_199 + 257 x_201 + 198 x_205 + 251 x_209 + 216 x_85
      + 224 x_127 + 310 x_167 + 318 x_207 + 32 x_12 + 100 x_20 + 194 x_43
      + 163 x_81 + 171 x_123 + 257 x_163 + 265 x_203 <= 0
 c17: - z + 111 x_19 + 137 x_21 + 143 x_23 + 163 x_37 + 151 x_40 + 200 x_42
      + 231 x_44 + 183 x_46 + 133 x_67 + 186 x_70 + 147 x_73 + 200 x_76
      + 170 x_78 + 223 x_80 + 200 x_82 + 179 x_84 + 253 x_86 + 232 x_88
      + 141 x_109 + 194 x_112 + 155 x_115 + 208 x_118 + 178 x_120 + 231 x_122
      + 208 x_124 + 187 x_126 + 261 x_128 + 240 x_130 + 173 x_149 + 226 x_152
      + 187 x_155 + 240 x_158 + 210 x_160 + 263 x_162 + 294 x_164 + 219 x_166
      + 347 x_168 + 272 x_170 + 181 x_189 + 234 x_192 + 195 x_195 + 248 x_198
      + 218 x_200 + 271 x_202 + 302 x_204 + 227 x_206 + 355 x_208 + 280 x_210
      + 82 x_18 + 114 x_22 + 134 x_36 + 122 x_39 + 186 x_41 + 154 x_45
      + 104 x_66 + 157 x_69 + 118 x_72 + 171 x_75 + 156 x_77 + 209 x_79
      + 150 x_83 + 203 x_87 + 112 x_108 + 165 x_111 + 126 x_114 + 179 x_117
      + 164 x_119 + 217 x_121 + 158 x_125 + 211 x_129 + 144 x_148 + 197 x_151
      + 158 x_154 + 211 x_157 + 196 x_159 + 249 x_161 + 190 x_165 + 243 x_169
      + 152 x_188 + 205 x_191 + 166 x_194 + 219 x_197 + 204 x_199 + 257 x_201
      + 198 x_205 + 251 x_209 + 116 x_68 + 184 x_74 + 216 x_85 + 124 x_110
      + 192 x_116 + 224 x_127 + 210 x_150 + 278 x_156 + 310 x_167 + 218 x_190
      + 286 x_196 + 318 x_207 + 68 x_17 + 100 x_20 + 162 x_38 + 194 x_43
      + 131 x_71 + 163 x_81 + 139 x_113 + 171 x_123 + 225 x_153 + 257 x_163
      + 233 x_193 + 265 x_203 + 94 x_35 + 63 x_65 + 71 x_107 + 157 x_147
      + 165 x_187 <= 0
 c18: - z + 78 x_91 + 131 x_94 + 92 x_96 + 145 x_98 + 115 x_100 + 168 x_102
      + 124 x_104 + 177 x_106 + 141 x_109 + 194 x_112 + 155 x_115 + 208 x_118
      + 178 x_120 + 231 x_122 + 208 x_124 + 187 x_126 + 261 x_128 + 240 x_130
      + 118 x_172 + 171 x_174 + 132 x_176 + 185 x_178 + 155 x_180 + 208 x_182
      + 164 x_184 + 217 x_186 + 181 x_189 + 234 x_192 + 195 x_195 + 248 x_198
      + 218 x_200 + 271 x_202 + 302 x_204 + 227 x_206 + 355 x_208 + 280 x_210
      + 49 x_90 + 102 x_93 + 63 x_95 + 116 x_97 + 101 x_99 + 154 x_101
      + 95 x_103 + 148 x_105 + 112 x_108 + 165 x_111 + 126 x_114 + 179 x_117
      + 164 x_119 + 217 x_121 + 158 x_125 + 211 x_129 + 89 x_171 + 142 x_173
      + 103 x_175 + 156 x_177 + 141 x_179 + 194 x_181 + 135 x_183 + 188 x_185
      + 152 x_188 + 205 x_191 + 166 x_194 + 219 x_197 + 204 x_199 + 257 x_201
      + 198 x_205 + 251 x_209 + 55 x_25 + 61 x_92 + 124 x_110 + 192 x_116
      + 224 x_127 + 218 x_190 + 286 x_196 + 318 x_207 + 139 x_113 + 171 x_123
      + 233 x_193 + 265 x_203 + 71 x_107 + 165 x_187 + 8 x_89 <= 0
 c19: - z + 69 x_28 + 83 x_30 + 106 x_32 + 115 x_34 + 163 x_37 + 151 x_40
      + 200 x_42 + 231 x_44 + 183 x_46 + 110 x_132 + 163 x_134 + 124 x_136
      + 177 x_138 + 147 x_140 + 200 x_142 + 156 x_144 + 209 x_146 + 173 x_149
      + 226 x_152 + 187 x_155 + 240 x_158 + 210 x_160 + 263 x_162 + 294 x_164
      + 219 x_166 + 347 x_168 + 272 x_170 + 118 x_172 + 171 x_174 + 132 x_176
      + 185 x_178 + 155 x_180 + 208 x_182 + 164 x_184 + 217 x_186 + 181 x_189
      + 234 x_192 + 195 x_195 + 248 x_198 + 218 x_200 + 271 x_202 + 302 x_204
      + 227 x_206 + 355 x_208 + 280 x_210 + 40 x_27 + 54 x_29 + 92 x_31
      + 86 x_33 + 134 x_36 + 122 x_39 + 186 x_41 + 154 x_45 + 81 x_131
      + 134 x_133 + 95 x_135 + 148 x_137 + 133 x_139 + 186 x_141 + 127 x_143
      + 180 x_145 + 144 x_148 + 197 x_151 + 158 x_154 + 211 x_157 + 196 x_159
      + 249 x_161 + 190 x_165 + 243 x_169 + 89 x_171 + 142 x_173 + 103 x_175
      + 156 x_177 + 141 x_179 + 194 x_181 + 135 x_183 + 188 x_185 + 152 x_188
      + 205 x_191 + 166 x_194 + 219 x_197 + 204 x_199 + 257 x_201 + 198 x_205
      + 251 x_209 + 210 x_150 + 278 x_156 + 310 x_167 + 218 x_190 + 286 x_196
      + 318 x_207 + 162 x_38 + 194 x_43 + 225 x_153 + 257 x_163 + 233 x_193
      + 265 x_203 + 94 x_35 + 157 x_147 + 165 x_187 <= 0
 c20: - z + 70 x_49 + 123 x_52 + 84 x_54 + 137 x_56 + 107 x_58 + 160 x_60
      + 116 x_62 + 169 x_64 + 133 x_67 + 186 x_70 + 147 x_73 + 200 x_76
      + 170 x_78 + 223 x_80 + 200 x_82 + 179 x_84 + 253 x_86 + 232 x_88
      + 78 x_91 + 131 x_94 + 92 x_96 + 145 x_98 + 115 x_100 + 168 x_102
      + 124 x_104 + 177 x_106 + 141 x_109 + 194 x_112 + 155 x_115 + 208 x_118
      + 178 x_120 + 231 x_122 + 208 x_124 + 187 x_126 + 261 x_128 + 240 x_130
      + 110 x_132 + 163 x_134 + 124 x_136 + 177 x_138 + 147 x_140 + 200 x_142
      + 156 x_144 + 209 x_146 + 173 x_149 + 226 x_152 + 187 x_155 + 240 x_158
      + 210 x_160 + 263 x_162 + 294 x_164 + 219 x_166 + 347 x_168 + 272 x_170
      + 118 x_172 + 171 x_174 + 132 x_176 + 185 x_178 + 155 x_180 + 208 x_182
      + 164 x_184 + 217 x_186 + 181 x_189 + 234 x_192 + 195 x_195 + 248 x_198
      + 218 x_200 + 271 x_202 + 302 x_204 + 227 x_206 + 355 x_208 + 280 x_210
      + 41 x_48 + 94 x_51 + 55 x_53 + 108 x_55 + 93 x_57 + 146 x_59 + 87 x_61
      + 140 x_63 + 104 x_66 + 157 x_69 + 118 x_72 + 171 x_75 + 156 x_77
      + 209 x_79 + 150 x_83 + 203 x_87 + 49 x_90 + 102 x_93 + 63 x_95
      + 116 x_97 + 101 x_99 + 154 x_101 + 95 x_103 + 148 x_105 + 112 x_108
      + 165 x_111 + 126 x_114 + 179 x_117 + 164 x_119 + 217 x_121 + 158 x_125
      + 211 x_129 + 81 x_131 + 134 x_133 + 95 x_135 + 148 x_137 + 133 x_139
      + 186 x_141 + 127 x_143 + 180 x_145 + 144 x_148 + 197 x_151 + 158 x_154
      + 211 x_157 + 196 x_159 + 249 x_161 + 190 x_165 + 243 x_169 + 89 x_171
      + 142 x_173 + 103 x_175 + 156 x_177 + 141 x_179 + 194 x_181 + 135 x_183
      + 188 x_185 + 152 x_188 + 205 x_191 + 166 x_194 + 219 x_197 + 204 x_199
      + 257 x_201 + 198 x_205 + 251 x_209 + 53 x_50 + 116 x_68 + 184 x_74
      + 216 x_85 + 61 x_92 + 124 x_110 + 192 x_116 + 224 x_127 + 210 x_150
      + 278 x_156 + 310 x_167 + 218 x_190 + 286 x_196 + 318 x_207 + 131 x_71
      + 163 x_81 + 139 x_113 + 171 x_123 + 225 x_153 + 257 x_163 + 233 x_193
      + 265 x_203 + 63 x_65 + 71 x_107 + 157 x_147 + 165 x_187 + 8 x_89 <= 0
 c21: x_0 + x_1 + x_3 + x_7 + x_9 + x_11 + x_13 + x_15 + x_19 + x_21 + x_23
      + x_28 + x_30 + x_32 + x_34 + x_37 + x_40 + x_42 + x_44 + x_46 + x_49
      + x_52 + x_54 + x_56 + x_58 + x_60 + x_62 + x_64 + x_67 + x_70 + x_73
      + x_76 + x_78 + x_80 + x_82 + x_84 + x_86 + x_88 + x_91 + x_94 + x_96
      + x_98 + x_100 + x_102 + x_104 + x_106 + x_109 + x_112 + x_115 + x_118
      + x_120 + x_122 + x_124 + x_126 + x_128 + x_130 + x_132 + x_134 + x_136
      + x_138 + x_140 + x_142 + x_144 + x_146 + x_149 + x_152 + x_155 + x_158
      + x_160 + x_162 + x_164 + x_166 + x_168 + x_170 + x_172 + x_174 + x_176
      + x_178 + x_180 + x_182 + x_184 + x_186 + x_189 + x_192 + x_195 + x_198
      + x_200 + x_202 + x_204 + x_206 + x_208 + x_210 + x_2 + x_6 + x_10 + x_14
      + x_18 + x_22 + x_27 + x_29 + x_31 + x_33 + x_36 + x_39 + x_41 + x_45
      + x_48 + x_51 + x_53 + x_55 + x_57 + x_59 + x_61 + x_63 + x_66 + x_69
      + x_72 + x_75 + x_77 + x_79 + x_83 + x_87 + x_90 + x_93 + x_95 + x_97
      + x_99 + x_101 + x_103 + x_105 + x_108 + x_111 + x_114 + x_117 + x_119
      + x_121 + x_125 + x_129 + x_131 + x_133 + x_135 + x_137 + x_139 + x_141
      + x_143 + x_145 + x_148 + x_151 + x_154 + x_157 + x_159 + x_161 + x_165
      + x_169 + x_171 + x_173 + x_175 + x_177 + x_179 + x_181 + x_183 + x_185
      + x_188 + x_191 + x_194 + x_197 + x_199 + x_201 + x_205 + x_209 + x_4
      + x_25 + x_50 + x_68 + x_74 + x_85 + x_92 + x_110 + x_116 + x_127 + x_150
      + x_156 + x_167 + x_190 + x_196 + x_207 + x_5 + x_12 + x_17 + x_20 + x_38
      + x_43 + x_71 + x_81 + x_113 + x_123 + x_153 + x_163 + x_193 + x_203
      + x_8 + x_16 + x_35 + x_65 + x_107 + x_147 + x_187 + x_24 + x_89 + x_26
      + x_47 <= 3
Bounds
 0 <= x_0 <= 1
 0 <= x_1 <= 1
 0 <= x_3 <= 1
 0 <= x_7 <= 1
 0 <= x_9 <= 1
 0 <= x_11 <= 1
 0 <= x_13 <= 1
 0 <= x_15 <= 1
 0 <= x_19 <= 1
 0 <= x_21 <= 1
 0 <= x_23 <= 1
 0 <= x_28 <= 1
 0 <= x_30 <= 1
 0 <= x_32 <= 1
 0 <= x_34 <= 1
 0 <= x_37 <= 1
 0 <= x_40 <= 1
 0 <= x_42 <= 1
 0 <= x_44 <= 1
 0 <= x_46 <= 1
 0 <= x_49 <= 1
 0 <= x_52 <= 1
 0 <= x_54 <= 1
 0 <= x_56 <= 1
 0 <= x_58 <= 1
 0 <= x_60 <= 1
 0 <= x_62 <= 1
 0 <= x_64 <= 1
 0 <= x_67 <= 1
 0 <= x_70 <= 1
 0 <= x_73 <= 1
 0 <= x_76 <= 1
 0 <= x_78 <= 1
 0 <= x_80 <= 1
 0 <= x_82 <= 1
 0 <= x_84 <= 1
 0 <= x_86 <= 1
 0 <= x_88 <= 1
 0 <= x_91 <= 1
 0 <= x_94 <= 1
 0 <= x_96 <= 1
 0 <= x_98 <= 1
 0 <= x_100 <= 1
 0 <= x_102 <= 1
 0 <= x_104 <= 1
 0 <= x_106 <= 1
 0 <= x_109 <= 1
 0 <= x_112 <= 1
 0 <= x_115 <= 1
 0 <= x_118 <= 1
 0 <= x_120 <= 1
 0 <= x_122 <= 1
 0 <= x_124 <= 1
 0 <= x_126 <= 1
 0 <= x_128 <= 1
 0 <= x_130 <= 1
 0 <= x_132 <= 1
 0 <= x_134 <= 1
 0 <= x_136 <= 1
 0 <= x_138 <= 1
 0 <= x_140 <= 1
 0 <= x_142 <= 1
 0 <= x_144 <= 1
 0 <= x_146 <= 1
 0 <= x_149 <= 1
 0 <= x_152 <= 1
 0 <= x_155 <= 1
 0 <= x_158 <= 1
 0 <= x_160 <= 1
 0 <= x_162 <= 1
 0 <= x_164 <= 1
 0 <= x_166 <= 1
 0 <= x_168 <= 1
 0 <= x_170 <= 1
 0 <= x_172 <= 1
 0 <= x_174 <= 1
 0 <= x_176 <= 1
 0 <= x_178 <= 1
 0 <= x_180 <= 1
 0 <= x_182 <= 1
 0 <= x_184 <= 1
 0 <= x_186 <= 1
 0 <= x_189 <= 1
 0 <= x_192 <= 1
 0 <= x_195 <= 1
 0 <= x_198 <= 1
 0 <= x_200 <= 1
 0 <= x_202 <= 1
 0 <= x_204 <= 1
 0 <= x_206 <= 1
 0 <= x_208 <= 1
 0 <= x_210 <= 1
 0 <= x_2 <= 1
 0 <= x_6 <= 1
 0 <= x_10 <= 1
 0 <= x_14 <= 1
 0 <= x_18 <= 1
 0 <= x_22 <= 1
 0 <= x_27 <= 1
 0 <= x_29 <= 1
 0 <= x_31 <= 1
 0 <= x_33 <= 1
 0 <= x_36 <= 1
 0 <= x_39 <= 1
 0 <= x_41 <= 1
 0 <= x_45 <= 1
 0 <= x_48 <= 1
 0 <= x_51 <= 1
 0 <= x_53 <= 1
 0 <= x_55 <= 1
 0 <= x_57 <= 1
 0 <= x_59 <= 1
 0 <= x_61 <= 1
 0 <= x_63 <= 1
 0 <= x_66 <= 1
 0 <= x_69 <= 1
 0 <= x_72 <= 1
 0 <= x_75 <= 1
 0 <= x_77 <= 1
 0 <= x_79 <= 1
 0 <= x_83 <= 1
 0 <= x_87 <= 1
 0 <= x_90 <= 1
 0 <= x_93 <= 1
 0 <= x_95 <= 1
 0 <= x_97 <= 1
 0 <= x_99 <= 1
 0 <= x_101 <= 1
 0 <= x_103 <= 1
 0 <= x_105 <= 1
 0 <= x_108 <= 1
 0 <= x_111 <= 1
 0 <= x_114 <= 1
 0 <= x_117 <= 1
 0 <= x_119 <= 1
 0 <= x_121 <= 1
 0 <= x_125 <= 1
 0 <= x_129 <= 1
 0 <= x_131 <= 1
 0 <= x_133 <= 1
 0 <= x_135 <= 1
 0 <= x_137 <= 1
 0 <= x_139 <= 1
 0 <= x_141 <= 1
 0 <= x_143 <= 1
 0 <= x_145 <= 1
 0 <= x_148 <= 1
 0 <= x_151 <= 1
 0 <= x_154 <= 1
 0 <= x_157 <= 1
 0 <= x_159 <= 1
 0 <= x_161 <= 1
 0 <= x_165 <= 1
 0 <= x_169 <= 1
 0 <= x_171 <= 1
 0 <= x_173 <= 1
 0 <= x_175 <= 1
 0 <= x_177 <= 1
 0 <= x_179 <= 1
 0 <= x_181 <= 1
 0 <= x_183 <= 1
 0 <= x_185 <= 1
 0 <= x_188 <= 1
 0 <= x_191 <= 1
 0 <= x_194 <= 1
 0 <= x_197 <= 1
 0 <= x_199 <= 1
 0 <= x_201 <= 1
 0 <= x_205 <= 1
 0 <= x_209 <= 1
 0 <= x_4 <= 1
 0 <= x_25 <= 1
 0 <= x_50 <= 1
 0 <= x_68 <= 1
 0 <= x_74 <= 1
 0 <= x_85 <= 1
 0 <= x_92 <= 1
 0 <= x_110 <= 1
 0 <= x_116 <= 1
 0 <= x_127 <= 1
 0 <= x_150 <= 1
 0 <= x_156 <= 1
 0 <= x_167 <= 1
 0 <= x_190 <= 1
 0 <= x_196 <= 1
 0 <= x_207 <= 1
 0 <= x_5 <= 1
 0 <= x_12 <= 1
 0 <= x_17 <= 1
 0 <= x_20 <= 1
 0 <= x_38 <= 1
 0 <= x_43 <= 1
 0 <= x_71 <= 1
 0 <= x_81 <= 1
 0 <= x_113 <= 1
 0 <= x_123 <= 1
 0 <= x_153 <= 1
 0 <= x_163 <= 1
 0 <= x_193 <= 1
 0 <= x_203 <= 1
 0 <= x_8 <= 1
 0 <= x_16 <= 1
 0 <= x_35 <= 1
 0 <= x_65 <= 1
 0 <= x_107 <= 1
 0 <= x_147 <= 1
 0 <= x_187 <= 1
 0 <= x_24 <= 1
 0 <= x_89 <= 1
 0 <= x_26 <= 1
 0 <= x_47 <= 1
End
